&control
    calculation='bands',
    prefix='graphene',
    outdir='./tmp'
    restart_mode='from_scratch'
    pseudo_dir = '../../pseudo'
    wf_collect=.true.
    verbosity = 'high'

/
 &system
    ibrav = 4,
    celldm(1) = 4.6542890,
    celldm(3) = 5,
    nat= 2,
    ntyp= 1,
    nbnd = 22,
    ecutwfc = 50,
    occupations='smearing'
    degauss=0.0001
/
&electrons
 conv_thr =  1.0e-9
/
ATOMIC_SPECIES
 C  12.01070 C.pbe-mt_fhi.UPF
ATOMIC_POSITIONS {crystal}
 C 0.666660000 0.333330000 0.000
C 0.000000000 0.000000000 0.0000
K_POINTS {crystal_b}
4
0.66667 -0.33333 0.00000 50 ! K
0.00000  0.00000 0.00000 50 ! Gamma
0.50000 -0.50000 0.00000 50 ! M
0.66667 -0.33333 0.00000 50 ! K
